50

100 12 300
97 17 295
95 25 285
95 1 294
95 3 290
95 27 285
94 14 293
93 20 280
93 23 293
91 5 294
90 2 296
89 24 297
87 20 274
83 16 261
82 2 264
79 8 280
79 4 262
78 21 277
77 7 242
77 24 261
74 8 280
71 7 230
69 3 266
68 9 229
68 11 261
65 5 225
65 3 222
64 20 227
61 19 270
58 11 229
55 14 192
55 7 243
54 16 213
53 11 290
53 9 199
51 4 251
51 8 280
49 4 184
46 8 256
44 6 297
42 12 194
41 3 276
39 5 132
38 9 248
37 11 134
37 1 146
37 6 214
35 10 141
33 4 197
31 2 296
